1670828
0,53,12,46,64,44,26,16,8,57,14,7,35,58,15,62,20,2,41,55,31,39,4,18,48,22,59,28,5,40,29,24,11,60,23,19,3,47,1,67,34,50,38,61,36,52,49,27,43,13,9,17,56,32,51,21,30,37,66,6,42,45,33,54,25,65,10,63
